c *********************************
c * Circuit generated by BenCGen
c *
c * Parity_127
c *
c * Ports with 1 gate(s): 1
c * Ports with 2 gate(s): 127
c * Total gates: 128
c *********************************
p cnf 255 509
1 130 0
-1 -130 0
1 -129 0
130 -129 0
-1 -130 129 0
1 2 -131 0
-1 2 131 0
1 -2 131 0
-1 -2 -131 0
3 4 -132 0
-3 4 132 0
3 -4 132 0
-3 -4 -132 0
5 6 -133 0
-5 6 133 0
5 -6 133 0
-5 -6 -133 0
7 8 -134 0
-7 8 134 0
7 -8 134 0
-7 -8 -134 0
9 10 -135 0
-9 10 135 0
9 -10 135 0
-9 -10 -135 0
11 12 -136 0
-11 12 136 0
11 -12 136 0
-11 -12 -136 0
13 14 -137 0
-13 14 137 0
13 -14 137 0
-13 -14 -137 0
15 16 -138 0
-15 16 138 0
15 -16 138 0
-15 -16 -138 0
17 18 -139 0
-17 18 139 0
17 -18 139 0
-17 -18 -139 0
19 20 -140 0
-19 20 140 0
19 -20 140 0
-19 -20 -140 0
21 22 -141 0
-21 22 141 0
21 -22 141 0
-21 -22 -141 0
23 24 -142 0
-23 24 142 0
23 -24 142 0
-23 -24 -142 0
25 26 -143 0
-25 26 143 0
25 -26 143 0
-25 -26 -143 0
27 28 -144 0
-27 28 144 0
27 -28 144 0
-27 -28 -144 0
29 30 -145 0
-29 30 145 0
29 -30 145 0
-29 -30 -145 0
31 32 -146 0
-31 32 146 0
31 -32 146 0
-31 -32 -146 0
33 34 -147 0
-33 34 147 0
33 -34 147 0
-33 -34 -147 0
35 36 -148 0
-35 36 148 0
35 -36 148 0
-35 -36 -148 0
37 38 -149 0
-37 38 149 0
37 -38 149 0
-37 -38 -149 0
39 40 -150 0
-39 40 150 0
39 -40 150 0
-39 -40 -150 0
41 42 -151 0
-41 42 151 0
41 -42 151 0
-41 -42 -151 0
43 44 -152 0
-43 44 152 0
43 -44 152 0
-43 -44 -152 0
45 46 -153 0
-45 46 153 0
45 -46 153 0
-45 -46 -153 0
47 48 -154 0
-47 48 154 0
47 -48 154 0
-47 -48 -154 0
49 50 -155 0
-49 50 155 0
49 -50 155 0
-49 -50 -155 0
51 52 -156 0
-51 52 156 0
51 -52 156 0
-51 -52 -156 0
53 54 -157 0
-53 54 157 0
53 -54 157 0
-53 -54 -157 0
55 56 -158 0
-55 56 158 0
55 -56 158 0
-55 -56 -158 0
57 58 -159 0
-57 58 159 0
57 -58 159 0
-57 -58 -159 0
59 60 -160 0
-59 60 160 0
59 -60 160 0
-59 -60 -160 0
61 62 -161 0
-61 62 161 0
61 -62 161 0
-61 -62 -161 0
63 64 -162 0
-63 64 162 0
63 -64 162 0
-63 -64 -162 0
65 66 -163 0
-65 66 163 0
65 -66 163 0
-65 -66 -163 0
67 68 -164 0
-67 68 164 0
67 -68 164 0
-67 -68 -164 0
69 70 -165 0
-69 70 165 0
69 -70 165 0
-69 -70 -165 0
71 72 -166 0
-71 72 166 0
71 -72 166 0
-71 -72 -166 0
73 74 -167 0
-73 74 167 0
73 -74 167 0
-73 -74 -167 0
75 76 -168 0
-75 76 168 0
75 -76 168 0
-75 -76 -168 0
77 78 -169 0
-77 78 169 0
77 -78 169 0
-77 -78 -169 0
79 80 -170 0
-79 80 170 0
79 -80 170 0
-79 -80 -170 0
81 82 -171 0
-81 82 171 0
81 -82 171 0
-81 -82 -171 0
83 84 -172 0
-83 84 172 0
83 -84 172 0
-83 -84 -172 0
85 86 -173 0
-85 86 173 0
85 -86 173 0
-85 -86 -173 0
87 88 -174 0
-87 88 174 0
87 -88 174 0
-87 -88 -174 0
89 90 -175 0
-89 90 175 0
89 -90 175 0
-89 -90 -175 0
91 92 -176 0
-91 92 176 0
91 -92 176 0
-91 -92 -176 0
93 94 -177 0
-93 94 177 0
93 -94 177 0
-93 -94 -177 0
95 96 -178 0
-95 96 178 0
95 -96 178 0
-95 -96 -178 0
97 98 -179 0
-97 98 179 0
97 -98 179 0
-97 -98 -179 0
99 100 -180 0
-99 100 180 0
99 -100 180 0
-99 -100 -180 0
101 102 -181 0
-101 102 181 0
101 -102 181 0
-101 -102 -181 0
103 104 -182 0
-103 104 182 0
103 -104 182 0
-103 -104 -182 0
105 106 -183 0
-105 106 183 0
105 -106 183 0
-105 -106 -183 0
107 108 -184 0
-107 108 184 0
107 -108 184 0
-107 -108 -184 0
109 110 -185 0
-109 110 185 0
109 -110 185 0
-109 -110 -185 0
111 112 -186 0
-111 112 186 0
111 -112 186 0
-111 -112 -186 0
113 114 -187 0
-113 114 187 0
113 -114 187 0
-113 -114 -187 0
115 116 -188 0
-115 116 188 0
115 -116 188 0
-115 -116 -188 0
117 118 -189 0
-117 118 189 0
117 -118 189 0
-117 -118 -189 0
119 120 -190 0
-119 120 190 0
119 -120 190 0
-119 -120 -190 0
121 122 -191 0
-121 122 191 0
121 -122 191 0
-121 -122 -191 0
123 124 -192 0
-123 124 192 0
123 -124 192 0
-123 -124 -192 0
125 126 -193 0
-125 126 193 0
125 -126 193 0
-125 -126 -193 0
131 132 -194 0
-131 132 194 0
131 -132 194 0
-131 -132 -194 0
133 134 -195 0
-133 134 195 0
133 -134 195 0
-133 -134 -195 0
135 136 -196 0
-135 136 196 0
135 -136 196 0
-135 -136 -196 0
137 138 -197 0
-137 138 197 0
137 -138 197 0
-137 -138 -197 0
139 140 -198 0
-139 140 198 0
139 -140 198 0
-139 -140 -198 0
141 142 -199 0
-141 142 199 0
141 -142 199 0
-141 -142 -199 0
143 144 -200 0
-143 144 200 0
143 -144 200 0
-143 -144 -200 0
145 146 -201 0
-145 146 201 0
145 -146 201 0
-145 -146 -201 0
147 148 -202 0
-147 148 202 0
147 -148 202 0
-147 -148 -202 0
149 150 -203 0
-149 150 203 0
149 -150 203 0
-149 -150 -203 0
151 152 -204 0
-151 152 204 0
151 -152 204 0
-151 -152 -204 0
153 154 -205 0
-153 154 205 0
153 -154 205 0
-153 -154 -205 0
155 156 -206 0
-155 156 206 0
155 -156 206 0
-155 -156 -206 0
157 158 -207 0
-157 158 207 0
157 -158 207 0
-157 -158 -207 0
159 160 -208 0
-159 160 208 0
159 -160 208 0
-159 -160 -208 0
161 162 -209 0
-161 162 209 0
161 -162 209 0
-161 -162 -209 0
163 164 -210 0
-163 164 210 0
163 -164 210 0
-163 -164 -210 0
165 166 -211 0
-165 166 211 0
165 -166 211 0
-165 -166 -211 0
167 168 -212 0
-167 168 212 0
167 -168 212 0
-167 -168 -212 0
169 170 -213 0
-169 170 213 0
169 -170 213 0
-169 -170 -213 0
171 172 -214 0
-171 172 214 0
171 -172 214 0
-171 -172 -214 0
173 174 -215 0
-173 174 215 0
173 -174 215 0
-173 -174 -215 0
175 176 -216 0
-175 176 216 0
175 -176 216 0
-175 -176 -216 0
177 178 -217 0
-177 178 217 0
177 -178 217 0
-177 -178 -217 0
179 180 -218 0
-179 180 218 0
179 -180 218 0
-179 -180 -218 0
181 182 -219 0
-181 182 219 0
181 -182 219 0
-181 -182 -219 0
183 184 -220 0
-183 184 220 0
183 -184 220 0
-183 -184 -220 0
185 186 -221 0
-185 186 221 0
185 -186 221 0
-185 -186 -221 0
187 188 -222 0
-187 188 222 0
187 -188 222 0
-187 -188 -222 0
189 190 -223 0
-189 190 223 0
189 -190 223 0
-189 -190 -223 0
191 192 -224 0
-191 192 224 0
191 -192 224 0
-191 -192 -224 0
193 127 -225 0
-193 127 225 0
193 -127 225 0
-193 -127 -225 0
194 195 -226 0
-194 195 226 0
194 -195 226 0
-194 -195 -226 0
196 197 -227 0
-196 197 227 0
196 -197 227 0
-196 -197 -227 0
198 199 -228 0
-198 199 228 0
198 -199 228 0
-198 -199 -228 0
200 201 -229 0
-200 201 229 0
200 -201 229 0
-200 -201 -229 0
202 203 -230 0
-202 203 230 0
202 -203 230 0
-202 -203 -230 0
204 205 -231 0
-204 205 231 0
204 -205 231 0
-204 -205 -231 0
206 207 -232 0
-206 207 232 0
206 -207 232 0
-206 -207 -232 0
208 209 -233 0
-208 209 233 0
208 -209 233 0
-208 -209 -233 0
210 211 -234 0
-210 211 234 0
210 -211 234 0
-210 -211 -234 0
212 213 -235 0
-212 213 235 0
212 -213 235 0
-212 -213 -235 0
214 215 -236 0
-214 215 236 0
214 -215 236 0
-214 -215 -236 0
216 217 -237 0
-216 217 237 0
216 -217 237 0
-216 -217 -237 0
218 219 -238 0
-218 219 238 0
218 -219 238 0
-218 -219 -238 0
220 221 -239 0
-220 221 239 0
220 -221 239 0
-220 -221 -239 0
222 223 -240 0
-222 223 240 0
222 -223 240 0
-222 -223 -240 0
224 225 -241 0
-224 225 241 0
224 -225 241 0
-224 -225 -241 0
226 227 -242 0
-226 227 242 0
226 -227 242 0
-226 -227 -242 0
228 229 -243 0
-228 229 243 0
228 -229 243 0
-228 -229 -243 0
230 231 -244 0
-230 231 244 0
230 -231 244 0
-230 -231 -244 0
232 233 -245 0
-232 233 245 0
232 -233 245 0
-232 -233 -245 0
234 235 -246 0
-234 235 246 0
234 -235 246 0
-234 -235 -246 0
236 237 -247 0
-236 237 247 0
236 -237 247 0
-236 -237 -247 0
238 239 -248 0
-238 239 248 0
238 -239 248 0
-238 -239 -248 0
240 241 -249 0
-240 241 249 0
240 -241 249 0
-240 -241 -249 0
242 243 -250 0
-242 243 250 0
242 -243 250 0
-242 -243 -250 0
244 245 -251 0
-244 245 251 0
244 -245 251 0
-244 -245 -251 0
246 247 -252 0
-246 247 252 0
246 -247 252 0
-246 -247 -252 0
248 249 -253 0
-248 249 253 0
248 -249 253 0
-248 -249 -253 0
250 251 -254 0
-250 251 254 0
250 -251 254 0
-250 -251 -254 0
252 253 -255 0
-252 253 255 0
252 -253 255 0
-252 -253 -255 0
254 255 -128 0
-254 255 128 0
254 -255 128 0
-254 -255 -128 0
